(set-logic QF_BV)
(declare-fun _substvar_285_ () (_ BitVec 32))
(declare-fun _substvar_293_ () (_ BitVec 32))
(declare-fun _substvar_331_ () (_ BitVec 32))
(declare-fun _substvar_270_ () (_ BitVec 32))
(declare-fun _substvar_265_ () (_ BitVec 32))
(declare-fun _substvar_237_ () (_ BitVec 32))
(declare-fun _substvar_287_ () (_ BitVec 32))
(declare-fun _substvar_294_ () (_ BitVec 32))
(assert (let ((?v_34 (bvadd (_ bv0 32) (bvsub (bvashr _substvar_265_ _substvar_293_) (_ bv48 32))))) (and true true true true true true true true true true true true true true true true true true (not (= _substvar_270_ (_ bv0 32))) true true true true true true true true true true true true true true true true true true true true true true true true true true true true true (= (_ bv0 32) _substvar_294_) (= _substvar_294_ ?v_34) (= ?v_34 _substvar_237_) (= _substvar_237_ _substvar_287_) (= _substvar_287_ _substvar_285_) (= _substvar_285_ _substvar_331_) (= _substvar_331_ _substvar_270_))))
(check-sat)
(exit)
